91
77
62
44
85
95
61
75
0
76
129
60
50
92
57
72
111
56
86
69
0
60
57
115
110
92
74
149
92
99
91
56
85
73
69
63
82
0
323
61
53
52
66
88
153
88
123
88
43
89
69
77
100
60
70
107
77
0
0
76
34
71
76
100
76
102
0
57
192
92
63
70
105
106
58
119
128
95
54
109
88
109
111
106
108
46
91
143
62
56
50
40
35
141
112
76
65
117
107
85
